p cnf 349 1284
c p weight -25 1 0
c p weight 25 -1 0
c p weight 29 6.12323399573676603586882014729198302312846062338790031898128063403419218957424163818359375E-17 0
c p weight -29 1 0
c p weight 30 1 0
c p weight -30 1 0
c p weight -27 1 0
c p weight 27 -1 0
c p weight -31 1 0
c p weight 31 -1 0
c p weight -33 1 0
c p weight 33 -1 0
c p weight 37 6.12323399573676603586882014729198302312846062338790031898128063403419218957424163818359375E-17 0
c p weight -37 1 0
c p weight 38 1 0
c p weight -38 1 0
c p weight -35 1 0
c p weight 35 -1 0
c p weight -39 1 0
c p weight 39 -1 0
c p weight -41 1 0
c p weight 41 -1 0
c p weight 45 6.12323399573676603586882014729198302312846062338790031898128063403419218957424163818359375E-17 0
c p weight -45 1 0
c p weight 46 1 0
c p weight -46 1 0
c p weight -43 1 0
c p weight 43 -1 0
c p weight -47 1 0
c p weight 47 -1 0
c p weight -49 1 0
c p weight 49 -1 0
c p weight -52 1 0
c p weight 52 -1 0
c p weight 56 6.12323399573676603586882014729198302312846062338790031898128063403419218957424163818359375E-17 0
c p weight -56 1 0
c p weight 57 1 0
c p weight -57 1 0
c p weight -54 1 0
c p weight 54 -1 0
c p weight -58 1 0
c p weight 58 -1 0
c p weight -60 1 0
c p weight 60 -1 0
c p weight 64 6.12323399573676603586882014729198302312846062338790031898128063403419218957424163818359375E-17 0
c p weight -64 1 0
c p weight 65 1 0
c p weight -65 1 0
c p weight -62 1 0
c p weight 62 -1 0
c p weight -66 1 0
c p weight 66 -1 0
c p weight -68 1 0
c p weight 68 -1 0
c p weight 72 6.12323399573676603586882014729198302312846062338790031898128063403419218957424163818359375E-17 0
c p weight -72 1 0
c p weight 73 1 0
c p weight -73 1 0
c p weight -70 1 0
c p weight 70 -1 0
c p weight -74 1 0
c p weight 74 -1 0
c p weight -76 1 0
c p weight 76 -1 0
c p weight 80 6.12323399573676603586882014729198302312846062338790031898128063403419218957424163818359375E-17 0
c p weight -80 1 0
c p weight 81 1 0
c p weight -81 1 0
c p weight -78 1 0
c p weight 78 -1 0
c p weight -82 1 0
c p weight 82 -1 0
c p weight -84 1 0
c p weight 84 -1 0
c p weight -87 1 0
c p weight 87 -1 0
c p weight 91 6.12323399573676603586882014729198302312846062338790031898128063403419218957424163818359375E-17 0
c p weight -91 1 0
c p weight 92 1 0
c p weight -92 1 0
c p weight -89 1 0
c p weight 89 -1 0
c p weight -93 1 0
c p weight 93 -1 0
c p weight -95 1 0
c p weight 95 -1 0
c p weight 99 6.12323399573676603586882014729198302312846062338790031898128063403419218957424163818359375E-17 0
c p weight -99 1 0
c p weight 100 1 0
c p weight -100 1 0
c p weight -97 1 0
c p weight 97 -1 0
c p weight -101 1 0
c p weight 101 -1 0
c p weight -103 1 0
c p weight 103 -1 0
c p weight 107 6.12323399573676603586882014729198302312846062338790031898128063403419218957424163818359375E-17 0
c p weight -107 1 0
c p weight 108 1 0
c p weight -108 1 0
c p weight -105 1 0
c p weight 105 -1 0
c p weight -109 1 0
c p weight 109 -1 0
c p weight -111 1 0
c p weight 111 -1 0
c p weight 115 6.12323399573676603586882014729198302312846062338790031898128063403419218957424163818359375E-17 0
c p weight -115 1 0
c p weight 116 1 0
c p weight -116 1 0
c p weight -113 1 0
c p weight 113 -1 0
c p weight -117 1 0
c p weight 117 -1 0
c p weight -119 1 0
c p weight 119 -1 0
c p weight -122 1 0
c p weight 122 -1 0
c p weight 126 6.12323399573676603586882014729198302312846062338790031898128063403419218957424163818359375E-17 0
c p weight -126 1 0
c p weight 127 1 0
c p weight -127 1 0
c p weight -124 1 0
c p weight 124 -1 0
c p weight -128 1 0
c p weight 128 -1 0
c p weight -130 1 0
c p weight 130 -1 0
c p weight 134 6.12323399573676603586882014729198302312846062338790031898128063403419218957424163818359375E-17 0
c p weight -134 1 0
c p weight 135 1 0
c p weight -135 1 0
c p weight -132 1 0
c p weight 132 -1 0
c p weight -136 1 0
c p weight 136 -1 0
c p weight -138 1 0
c p weight 138 -1 0
c p weight 142 6.12323399573676603586882014729198302312846062338790031898128063403419218957424163818359375E-17 0
c p weight -142 1 0
c p weight 143 1 0
c p weight -143 1 0
c p weight -140 1 0
c p weight 140 -1 0
c p weight -144 1 0
c p weight 144 -1 0
c p weight -146 1 0
c p weight 146 -1 0
c p weight 150 6.12323399573676603586882014729198302312846062338790031898128063403419218957424163818359375E-17 0
c p weight -150 1 0
c p weight 151 1 0
c p weight -151 1 0
c p weight -148 1 0
c p weight 148 -1 0
c p weight -152 1 0
c p weight 152 -1 0
c p weight -154 1 0
c p weight 154 -1 0
c p weight -157 1 0
c p weight 157 -1 0
c p weight 161 6.12323399573676603586882014729198302312846062338790031898128063403419218957424163818359375E-17 0
c p weight -161 1 0
c p weight 162 1 0
c p weight -162 1 0
c p weight -159 1 0
c p weight 159 -1 0
c p weight -163 1 0
c p weight 163 -1 0
c p weight -165 1 0
c p weight 165 -1 0
c p weight 169 6.12323399573676603586882014729198302312846062338790031898128063403419218957424163818359375E-17 0
c p weight -169 1 0
c p weight 170 1 0
c p weight -170 1 0
c p weight -167 1 0
c p weight 167 -1 0
c p weight -171 1 0
c p weight 171 -1 0
c p weight -173 1 0
c p weight 173 -1 0
c p weight -176 1 0
c p weight 176 -1 0
c p weight 180 6.12323399573676603586882014729198302312846062338790031898128063403419218957424163818359375E-17 0
c p weight -180 1 0
c p weight 181 1 0
c p weight -181 1 0
c p weight -178 1 0
c p weight 178 -1 0
c p weight -182 1 0
c p weight 182 -1 0
c p weight -184 1 0
c p weight 184 -1 0
c p weight 188 6.12323399573676603586882014729198302312846062338790031898128063403419218957424163818359375E-17 0
c p weight -188 1 0
c p weight 189 1 0
c p weight -189 1 0
c p weight -186 1 0
c p weight 186 -1 0
c p weight -190 1 0
c p weight 190 -1 0
c p weight -192 1 0
c p weight 192 -1 0
c p weight 196 6.12323399573676603586882014729198302312846062338790031898128063403419218957424163818359375E-17 0
c p weight -196 1 0
c p weight 197 1 0
c p weight -197 1 0
c p weight -194 1 0
c p weight 194 -1 0
c p weight -198 1 0
c p weight 198 -1 0
c p weight -200 1 0
c p weight 200 -1 0
c p weight -203 1 0
c p weight 203 -1 0
c p weight 207 6.12323399573676603586882014729198302312846062338790031898128063403419218957424163818359375E-17 0
c p weight -207 1 0
c p weight 208 1 0
c p weight -208 1 0
c p weight -205 1 0
c p weight 205 -1 0
c p weight -209 1 0
c p weight 209 -1 0
c p weight -211 1 0
c p weight 211 -1 0
c p weight 215 6.12323399573676603586882014729198302312846062338790031898128063403419218957424163818359375E-17 0
c p weight -215 1 0
c p weight 216 1 0
c p weight -216 1 0
c p weight -213 1 0
c p weight 213 -1 0
c p weight -217 1 0
c p weight 217 -1 0
c p weight -219 1 0
c p weight 219 -1 0
c p weight -222 1 0
c p weight 222 -1 0
c p weight 226 6.12323399573676603586882014729198302312846062338790031898128063403419218957424163818359375E-17 0
c p weight -226 1 0
c p weight 227 1 0
c p weight -227 1 0
c p weight -224 1 0
c p weight 224 -1 0
c p weight -228 1 0
c p weight 228 -1 0
c p weight -230 1 0
c p weight 230 -1 0
c p weight 234 6.12323399573676603586882014729198302312846062338790031898128063403419218957424163818359375E-17 0
c p weight -234 1 0
c p weight 235 1 0
c p weight -235 1 0
c p weight -232 1 0
c p weight 232 -1 0
c p weight -236 1 0
c p weight 236 -1 0
c p weight -238 1 0
c p weight 238 -1 0
c p weight 242 6.12323399573676603586882014729198302312846062338790031898128063403419218957424163818359375E-17 0
c p weight -242 1 0
c p weight 243 1 0
c p weight -243 1 0
c p weight -240 1 0
c p weight 240 -1 0
c p weight -244 1 0
c p weight 244 -1 0
c p weight -246 1 0
c p weight 246 -1 0
c p weight -249 1 0
c p weight 249 -1 0
c p weight 253 6.12323399573676603586882014729198302312846062338790031898128063403419218957424163818359375E-17 0
c p weight -253 1 0
c p weight 254 1 0
c p weight -254 1 0
c p weight -251 1 0
c p weight 251 -1 0
c p weight -255 1 0
c p weight 255 -1 0
c p weight -257 1 0
c p weight 257 -1 0
c p weight 261 6.12323399573676603586882014729198302312846062338790031898128063403419218957424163818359375E-17 0
c p weight -261 1 0
c p weight 262 1 0
c p weight -262 1 0
c p weight -259 1 0
c p weight 259 -1 0
c p weight -263 1 0
c p weight 263 -1 0
c p weight -265 1 0
c p weight 265 -1 0
c p weight 269 6.12323399573676603586882014729198302312846062338790031898128063403419218957424163818359375E-17 0
c p weight -269 1 0
c p weight 270 1 0
c p weight -270 1 0
c p weight -267 1 0
c p weight 267 -1 0
c p weight -271 1 0
c p weight 271 -1 0
c p weight -273 1 0
c p weight 273 -1 0
c p weight -276 1 0
c p weight 276 -1 0
c p weight 280 6.12323399573676603586882014729198302312846062338790031898128063403419218957424163818359375E-17 0
c p weight -280 1 0
c p weight 281 1 0
c p weight -281 1 0
c p weight -278 1 0
c p weight 278 -1 0
c p weight -282 1 0
c p weight 282 -1 0
c p weight -284 1 0
c p weight 284 -1 0
c p weight 288 6.12323399573676603586882014729198302312846062338790031898128063403419218957424163818359375E-17 0
c p weight -288 1 0
c p weight 289 1 0
c p weight -289 1 0
c p weight -286 1 0
c p weight 286 -1 0
c p weight -290 1 0
c p weight 290 -1 0
c p weight -292 1 0
c p weight 292 -1 0
c p weight -295 1 0
c p weight 295 -1 0
c p weight 299 6.12323399573676603586882014729198302312846062338790031898128063403419218957424163818359375E-17 0
c p weight -299 1 0
c p weight 300 1 0
c p weight -300 1 0
c p weight -297 1 0
c p weight 297 -1 0
c p weight -301 1 0
c p weight 301 -1 0
c p weight -303 1 0
c p weight 303 -1 0
c p weight 307 6.12323399573676603586882014729198302312846062338790031898128063403419218957424163818359375E-17 0
c p weight -307 1 0
c p weight 308 1 0
c p weight -308 1 0
c p weight -305 1 0
c p weight 305 -1 0
c p weight -309 1 0
c p weight 309 -1 0
c p weight -311 1 0
c p weight 311 -1 0
c p weight 315 6.12323399573676603586882014729198302312846062338790031898128063403419218957424163818359375E-17 0
c p weight -315 1 0
c p weight 316 1 0
c p weight -316 1 0
c p weight -313 1 0
c p weight 313 -1 0
c p weight -317 1 0
c p weight 317 -1 0
c p weight -319 1 0
c p weight 319 -1 0
c p weight -322 1 0
c p weight 322 -1 0
c p weight 326 6.12323399573676603586882014729198302312846062338790031898128063403419218957424163818359375E-17 0
c p weight -326 1 0
c p weight 327 1 0
c p weight -327 1 0
c p weight -324 1 0
c p weight 324 -1 0
c p weight -328 1 0
c p weight 328 -1 0
c p weight -330 1 0
c p weight 330 -1 0
c p weight 334 6.12323399573676603586882014729198302312846062338790031898128063403419218957424163818359375E-17 0
c p weight -334 1 0
c p weight 335 1 0
c p weight -335 1 0
c p weight -332 1 0
c p weight 332 -1 0
c p weight -336 1 0
c p weight 336 -1 0
c p weight -338 1 0
c p weight 338 -1 0
c p weight -341 1 0
c p weight 341 -1 0
c p weight 345 6.12323399573676603586882014729198302312846062338790031898128063403419218957424163818359375E-17 0
c p weight -345 1 0
c p weight 346 1 0
c p weight -346 1 0
c p weight -343 1 0
c p weight 343 -1 0
c p weight -347 1 0
c p weight 347 -1 0
c p weight 349 0.5 0
c p weight -349 1 0
349 0
-23 0
-21 0
-19 0
-17 0
-15 0
-13 0
-11 0
-9 0
-7 0
-5 0
-3 0
-1 0
-25 1 0
-25 2 0
25 -1 -2 0
26 1 -2 0
26 -1 2 0
-26 1 2 0
-26 -1 -2 0
-27 28 0
-27 26 0
-27 -1 0
27 -28 1 -26 0
28 -1 26 0
-28 1 26 0
-29 26 0
28 -29 -1 0
-28 -29 1 0
28 29 1 -26 0
-28 29 -1 -26 0
-30 26 0
28 -30 1 0
-28 -30 -1 0
28 30 -1 -26 0
-28 30 1 -26 0
-31 28 0
-31 26 0
31 -28 -26 0
32 28 -26 0
32 -28 26 0
-32 28 26 0
-32 -28 -26 0
-33 3 0
-33 4 0
33 -3 -4 0
34 3 -4 0
34 -3 4 0
-34 3 4 0
-34 -3 -4 0
-35 36 0
-35 34 0
-35 -3 0
35 -36 3 -34 0
36 -3 34 0
-36 3 34 0
-37 34 0
36 -37 -3 0
-36 -37 3 0
36 37 3 -34 0
-36 37 -3 -34 0
-38 34 0
36 -38 3 0
-36 -38 -3 0
36 38 -3 -34 0
-36 38 3 -34 0
-39 36 0
-39 34 0
39 -36 -34 0
40 36 -34 0
40 -36 34 0
-40 36 34 0
-40 -36 -34 0
-41 36 0
-41 40 0
41 -36 -40 0
42 36 -40 0
42 -36 40 0
-42 36 40 0
-42 -36 -40 0
-43 44 0
-43 42 0
-43 -36 0
43 -44 36 -42 0
44 -36 42 0
-44 36 42 0
-45 42 0
44 -45 -36 0
-44 -45 36 0
44 45 36 -42 0
-44 45 -36 -42 0
-46 42 0
44 -46 36 0
-44 -46 -36 0
44 46 -36 -42 0
-44 46 36 -42 0
-47 44 0
-47 42 0
47 -44 -42 0
48 44 -42 0
48 -44 42 0
-48 44 42 0
-48 -44 -42 0
-49 28 0
-49 48 0
-49 44 -32 0
-49 -44 32 0
49 -28 44 32 -48 0
49 -28 -44 -32 -48 0
51 28 -44 0
51 -28 44 0
-51 28 44 0
-51 -28 -44 0
50 32 -48 0
50 -32 48 0
-50 32 48 0
-50 -32 -48 0
-52 51 0
-52 48 0
52 -51 -48 0
53 51 -48 0
53 -51 48 0
-53 51 48 0
-53 -51 -48 0
-54 55 0
-54 53 0
-54 -51 0
54 -55 51 -53 0
55 -51 53 0
-55 51 53 0
-56 53 0
55 -56 -51 0
-55 -56 51 0
55 56 51 -53 0
-55 56 -51 -53 0
-57 53 0
55 -57 51 0
-55 -57 -51 0
55 57 -51 -53 0
-55 57 51 -53 0
-58 55 0
-58 53 0
58 -55 -53 0
59 55 -53 0
59 -55 53 0
-59 55 53 0
-59 -55 -53 0
-60 5 0
-60 6 0
60 -5 -6 0
61 5 -6 0
61 -5 6 0
-61 5 6 0
-61 -5 -6 0
-62 63 0
-62 61 0
-62 -5 0
62 -63 5 -61 0
63 -5 61 0
-63 5 61 0
-64 61 0
63 -64 -5 0
-63 -64 5 0
63 64 5 -61 0
-63 64 -5 -61 0
-65 61 0
63 -65 5 0
-63 -65 -5 0
63 65 -5 -61 0
-63 65 5 -61 0
-66 63 0
-66 61 0
66 -63 -61 0
67 63 -61 0
67 -63 61 0
-67 63 61 0
-67 -63 -61 0
-68 7 0
-68 8 0
68 -7 -8 0
69 7 -8 0
69 -7 8 0
-69 7 8 0
-69 -7 -8 0
-70 71 0
-70 69 0
-70 -7 0
70 -71 7 -69 0
71 -7 69 0
-71 7 69 0
-72 69 0
71 -72 -7 0
-71 -72 7 0
71 72 7 -69 0
-71 72 -7 -69 0
-73 69 0
71 -73 7 0
-71 -73 -7 0
71 73 -7 -69 0
-71 73 7 -69 0
-74 71 0
-74 69 0
74 -71 -69 0
75 71 -69 0
75 -71 69 0
-75 71 69 0
-75 -71 -69 0
-76 71 0
-76 75 0
76 -71 -75 0
77 71 -75 0
77 -71 75 0
-77 71 75 0
-77 -71 -75 0
-78 79 0
-78 77 0
-78 -71 0
78 -79 71 -77 0
79 -71 77 0
-79 71 77 0
-80 77 0
79 -80 -71 0
-79 -80 71 0
79 80 71 -77 0
-79 80 -71 -77 0
-81 77 0
79 -81 71 0
-79 -81 -71 0
79 81 -71 -77 0
-79 81 71 -77 0
-82 79 0
-82 77 0
82 -79 -77 0
83 79 -77 0
83 -79 77 0
-83 79 77 0
-83 -79 -77 0
-84 63 0
-84 83 0
-84 79 -67 0
-84 -79 67 0
84 -63 79 67 -83 0
84 -63 -79 -67 -83 0
86 63 -79 0
86 -63 79 0
-86 63 79 0
-86 -63 -79 0
85 67 -83 0
85 -67 83 0
-85 67 83 0
-85 -67 -83 0
-87 86 0
-87 83 0
87 -86 -83 0
88 86 -83 0
88 -86 83 0
-88 86 83 0
-88 -86 -83 0
-89 90 0
-89 88 0
-89 -86 0
89 -90 86 -88 0
90 -86 88 0
-90 86 88 0
-91 88 0
90 -91 -86 0
-90 -91 86 0
90 91 86 -88 0
-90 91 -86 -88 0
-92 88 0
90 -92 86 0
-90 -92 -86 0
90 92 -86 -88 0
-90 92 86 -88 0
-93 90 0
-93 88 0
93 -90 -88 0
94 90 -88 0
94 -90 88 0
-94 90 88 0
-94 -90 -88 0
-95 9 0
-95 10 0
95 -9 -10 0
96 9 -10 0
96 -9 10 0
-96 9 10 0
-96 -9 -10 0
-97 98 0
-97 96 0
-97 -9 0
97 -98 9 -96 0
98 -9 96 0
-98 9 96 0
-99 96 0
98 -99 -9 0
-98 -99 9 0
98 99 9 -96 0
-98 99 -9 -96 0
-100 96 0
98 -100 9 0
-98 -100 -9 0
98 100 -9 -96 0
-98 100 9 -96 0
-101 98 0
-101 96 0
101 -98 -96 0
102 98 -96 0
102 -98 96 0
-102 98 96 0
-102 -98 -96 0
-103 11 0
-103 12 0
103 -11 -12 0
104 11 -12 0
104 -11 12 0
-104 11 12 0
-104 -11 -12 0
-105 106 0
-105 104 0
-105 -11 0
105 -106 11 -104 0
106 -11 104 0
-106 11 104 0
-107 104 0
106 -107 -11 0
-106 -107 11 0
106 107 11 -104 0
-106 107 -11 -104 0
-108 104 0
106 -108 11 0
-106 -108 -11 0
106 108 -11 -104 0
-106 108 11 -104 0
-109 106 0
-109 104 0
109 -106 -104 0
110 106 -104 0
110 -106 104 0
-110 106 104 0
-110 -106 -104 0
-111 106 0
-111 110 0
111 -106 -110 0
112 106 -110 0
112 -106 110 0
-112 106 110 0
-112 -106 -110 0
-113 114 0
-113 112 0
-113 -106 0
113 -114 106 -112 0
114 -106 112 0
-114 106 112 0
-115 112 0
114 -115 -106 0
-114 -115 106 0
114 115 106 -112 0
-114 115 -106 -112 0
-116 112 0
114 -116 106 0
-114 -116 -106 0
114 116 -106 -112 0
-114 116 106 -112 0
-117 114 0
-117 112 0
117 -114 -112 0
118 114 -112 0
118 -114 112 0
-118 114 112 0
-118 -114 -112 0
-119 98 0
-119 118 0
-119 114 -102 0
-119 -114 102 0
119 -98 114 102 -118 0
119 -98 -114 -102 -118 0
121 98 -114 0
121 -98 114 0
-121 98 114 0
-121 -98 -114 0
120 102 -118 0
120 -102 118 0
-120 102 118 0
-120 -102 -118 0
-122 121 0
-122 118 0
122 -121 -118 0
123 121 -118 0
123 -121 118 0
-123 121 118 0
-123 -121 -118 0
-124 125 0
-124 123 0
-124 -121 0
124 -125 121 -123 0
125 -121 123 0
-125 121 123 0
-126 123 0
125 -126 -121 0
-125 -126 121 0
125 126 121 -123 0
-125 126 -121 -123 0
-127 123 0
125 -127 121 0
-125 -127 -121 0
125 127 -121 -123 0
-125 127 121 -123 0
-128 125 0
-128 123 0
128 -125 -123 0
129 125 -123 0
129 -125 123 0
-129 125 123 0
-129 -125 -123 0
-130 13 0
-130 14 0
130 -13 -14 0
131 13 -14 0
131 -13 14 0
-131 13 14 0
-131 -13 -14 0
-132 133 0
-132 131 0
-132 -13 0
132 -133 13 -131 0
133 -13 131 0
-133 13 131 0
-134 131 0
133 -134 -13 0
-133 -134 13 0
133 134 13 -131 0
-133 134 -13 -131 0
-135 131 0
133 -135 13 0
-133 -135 -13 0
133 135 -13 -131 0
-133 135 13 -131 0
-136 133 0
-136 131 0
136 -133 -131 0
137 133 -131 0
137 -133 131 0
-137 133 131 0
-137 -133 -131 0
-138 15 0
-138 16 0
138 -15 -16 0
139 15 -16 0
139 -15 16 0
-139 15 16 0
-139 -15 -16 0
-140 141 0
-140 139 0
-140 -15 0
140 -141 15 -139 0
141 -15 139 0
-141 15 139 0
-142 139 0
141 -142 -15 0
-141 -142 15 0
141 142 15 -139 0
-141 142 -15 -139 0
-143 139 0
141 -143 15 0
-141 -143 -15 0
141 143 -15 -139 0
-141 143 15 -139 0
-144 141 0
-144 139 0
144 -141 -139 0
145 141 -139 0
145 -141 139 0
-145 141 139 0
-145 -141 -139 0
-146 141 0
-146 145 0
146 -141 -145 0
147 141 -145 0
147 -141 145 0
-147 141 145 0
-147 -141 -145 0
-148 149 0
-148 147 0
-148 -141 0
148 -149 141 -147 0
149 -141 147 0
-149 141 147 0
-150 147 0
149 -150 -141 0
-149 -150 141 0
149 150 141 -147 0
-149 150 -141 -147 0
-151 147 0
149 -151 141 0
-149 -151 -141 0
149 151 -141 -147 0
-149 151 141 -147 0
-152 149 0
-152 147 0
152 -149 -147 0
153 149 -147 0
153 -149 147 0
-153 149 147 0
-153 -149 -147 0
-154 98 0
-154 153 0
-154 149 -120 0
-154 -149 120 0
154 -98 149 120 -153 0
154 -98 -149 -120 -153 0
156 98 -149 0
156 -98 149 0
-156 98 149 0
-156 -98 -149 0
155 120 -153 0
155 -120 153 0
-155 120 153 0
-155 -120 -153 0
-157 156 0
-157 153 0
157 -156 -153 0
158 156 -153 0
158 -156 153 0
-158 156 153 0
-158 -156 -153 0
-159 160 0
-159 158 0
-159 -156 0
159 -160 156 -158 0
160 -156 158 0
-160 156 158 0
-161 158 0
160 -161 -156 0
-160 -161 156 0
160 161 156 -158 0
-160 161 -156 -158 0
-162 158 0
160 -162 156 0
-160 -162 -156 0
160 162 -156 -158 0
-160 162 156 -158 0
-163 160 0
-163 158 0
163 -160 -158 0
164 160 -158 0
164 -160 158 0
-164 160 158 0
-164 -160 -158 0
-165 160 0
-165 164 0
165 -160 -164 0
166 160 -164 0
166 -160 164 0
-166 160 164 0
-166 -160 -164 0
-167 168 0
-167 166 0
-167 -160 0
167 -168 160 -166 0
168 -160 166 0
-168 160 166 0
-169 166 0
168 -169 -160 0
-168 -169 160 0
168 169 160 -166 0
-168 169 -160 -166 0
-170 166 0
168 -170 160 0
-168 -170 -160 0
168 170 -160 -166 0
-168 170 160 -166 0
-171 168 0
-171 166 0
171 -168 -166 0
172 168 -166 0
172 -168 166 0
-172 168 166 0
-172 -168 -166 0
-173 133 0
-173 172 0
-173 168 -137 0
-173 -168 137 0
173 -133 168 137 -172 0
173 -133 -168 -137 -172 0
175 133 -168 0
175 -133 168 0
-175 133 168 0
-175 -133 -168 0
174 137 -172 0
174 -137 172 0
-174 137 172 0
-174 -137 -172 0
-176 175 0
-176 172 0
176 -175 -172 0
177 175 -172 0
177 -175 172 0
-177 175 172 0
-177 -175 -172 0
-178 179 0
-178 177 0
-178 -175 0
178 -179 175 -177 0
179 -175 177 0
-179 175 177 0
-180 177 0
179 -180 -175 0
-179 -180 175 0
179 180 175 -177 0
-179 180 -175 -177 0
-181 177 0
179 -181 175 0
-179 -181 -175 0
179 181 -175 -177 0
-179 181 175 -177 0
-182 179 0
-182 177 0
182 -179 -177 0
183 179 -177 0
183 -179 177 0
-183 179 177 0
-183 -179 -177 0
-184 17 0
-184 18 0
184 -17 -18 0
185 17 -18 0
185 -17 18 0
-185 17 18 0
-185 -17 -18 0
-186 187 0
-186 185 0
-186 -17 0
186 -187 17 -185 0
187 -17 185 0
-187 17 185 0
-188 185 0
187 -188 -17 0
-187 -188 17 0
187 188 17 -185 0
-187 188 -17 -185 0
-189 185 0
187 -189 17 0
-187 -189 -17 0
187 189 -17 -185 0
-187 189 17 -185 0
-190 187 0
-190 185 0
190 -187 -185 0
191 187 -185 0
191 -187 185 0
-191 187 185 0
-191 -187 -185 0
-192 187 0
-192 191 0
192 -187 -191 0
193 187 -191 0
193 -187 191 0
-193 187 191 0
-193 -187 -191 0
-194 195 0
-194 193 0
-194 -187 0
194 -195 187 -193 0
195 -187 193 0
-195 187 193 0
-196 193 0
195 -196 -187 0
-195 -196 187 0
195 196 187 -193 0
-195 196 -187 -193 0
-197 193 0
195 -197 187 0
-195 -197 -187 0
195 197 -187 -193 0
-195 197 187 -193 0
-198 195 0
-198 193 0
198 -195 -193 0
199 195 -193 0
199 -195 193 0
-199 195 193 0
-199 -195 -193 0
-200 90 0
-200 199 0
-200 195 -94 0
-200 -195 94 0
200 -90 195 94 -199 0
200 -90 -195 -94 -199 0
202 90 -195 0
202 -90 195 0
-202 90 195 0
-202 -90 -195 0
201 94 -199 0
201 -94 199 0
-201 94 199 0
-201 -94 -199 0
-203 202 0
-203 199 0
203 -202 -199 0
204 202 -199 0
204 -202 199 0
-204 202 199 0
-204 -202 -199 0
-205 206 0
-205 204 0
-205 -202 0
205 -206 202 -204 0
206 -202 204 0
-206 202 204 0
-207 204 0
206 -207 -202 0
-206 -207 202 0
206 207 202 -204 0
-206 207 -202 -204 0
-208 204 0
206 -208 202 0
-206 -208 -202 0
206 208 -202 -204 0
-206 208 202 -204 0
-209 206 0
-209 204 0
209 -206 -204 0
210 206 -204 0
210 -206 204 0
-210 206 204 0
-210 -206 -204 0
-211 206 0
-211 210 0
211 -206 -210 0
212 206 -210 0
212 -206 210 0
-212 206 210 0
-212 -206 -210 0
-213 214 0
-213 212 0
-213 -206 0
213 -214 206 -212 0
214 -206 212 0
-214 206 212 0
-215 212 0
214 -215 -206 0
-214 -215 206 0
214 215 206 -212 0
-214 215 -206 -212 0
-216 212 0
214 -216 206 0
-214 -216 -206 0
214 216 -206 -212 0
-214 216 206 -212 0
-217 214 0
-217 212 0
217 -214 -212 0
218 214 -212 0
218 -214 212 0
-218 214 212 0
-218 -214 -212 0
-219 133 0
-219 218 0
-219 214 -174 0
-219 -214 174 0
219 -133 214 174 -218 0
219 -133 -214 -174 -218 0
221 133 -214 0
221 -133 214 0
-221 133 214 0
-221 -133 -214 0
220 174 -218 0
220 -174 218 0
-220 174 218 0
-220 -174 -218 0
-222 221 0
-222 218 0
222 -221 -218 0
223 221 -218 0
223 -221 218 0
-223 221 218 0
-223 -221 -218 0
-224 225 0
-224 223 0
-224 -221 0
224 -225 221 -223 0
225 -221 223 0
-225 221 223 0
-226 223 0
225 -226 -221 0
-225 -226 221 0
225 226 221 -223 0
-225 226 -221 -223 0
-227 223 0
225 -227 221 0
-225 -227 -221 0
225 227 -221 -223 0
-225 227 221 -223 0
-228 225 0
-228 223 0
228 -225 -223 0
229 225 -223 0
229 -225 223 0
-229 225 223 0
-229 -225 -223 0
-230 19 0
-230 20 0
230 -19 -20 0
231 19 -20 0
231 -19 20 0
-231 19 20 0
-231 -19 -20 0
-232 233 0
-232 231 0
-232 -19 0
232 -233 19 -231 0
233 -19 231 0
-233 19 231 0
-234 231 0
233 -234 -19 0
-233 -234 19 0
233 234 19 -231 0
-233 234 -19 -231 0
-235 231 0
233 -235 19 0
-233 -235 -19 0
233 235 -19 -231 0
-233 235 19 -231 0
-236 233 0
-236 231 0
236 -233 -231 0
237 233 -231 0
237 -233 231 0
-237 233 231 0
-237 -233 -231 0
-238 233 0
-238 237 0
238 -233 -237 0
239 233 -237 0
239 -233 237 0
-239 233 237 0
-239 -233 -237 0
-240 241 0
-240 239 0
-240 -233 0
240 -241 233 -239 0
241 -233 239 0
-241 233 239 0
-242 239 0
241 -242 -233 0
-241 -242 233 0
241 242 233 -239 0
-241 242 -233 -239 0
-243 239 0
241 -243 233 0
-241 -243 -233 0
241 243 -233 -239 0
-241 243 233 -239 0
-244 241 0
-244 239 0
244 -241 -239 0
245 241 -239 0
245 -241 239 0
-245 241 239 0
-245 -241 -239 0
-246 55 0
-246 245 0
-246 241 -59 0
-246 -241 59 0
246 -55 241 59 -245 0
246 -55 -241 -59 -245 0
248 55 -241 0
248 -55 241 0
-248 55 241 0
-248 -55 -241 0
247 59 -245 0
247 -59 245 0
-247 59 245 0
-247 -59 -245 0
-249 248 0
-249 245 0
249 -248 -245 0
250 248 -245 0
250 -248 245 0
-250 248 245 0
-250 -248 -245 0
-251 252 0
-251 250 0
-251 -248 0
251 -252 248 -250 0
252 -248 250 0
-252 248 250 0
-253 250 0
252 -253 -248 0
-252 -253 248 0
252 253 248 -250 0
-252 253 -248 -250 0
-254 250 0
252 -254 248 0
-252 -254 -248 0
252 254 -248 -250 0
-252 254 248 -250 0
-255 252 0
-255 250 0
255 -252 -250 0
256 252 -250 0
256 -252 250 0
-256 252 250 0
-256 -252 -250 0
-257 21 0
-257 22 0
257 -21 -22 0
258 21 -22 0
258 -21 22 0
-258 21 22 0
-258 -21 -22 0
-259 260 0
-259 258 0
-259 -21 0
259 -260 21 -258 0
260 -21 258 0
-260 21 258 0
-261 258 0
260 -261 -21 0
-260 -261 21 0
260 261 21 -258 0
-260 261 -21 -258 0
-262 258 0
260 -262 21 0
-260 -262 -21 0
260 262 -21 -258 0
-260 262 21 -258 0
-263 260 0
-263 258 0
263 -260 -258 0
264 260 -258 0
264 -260 258 0
-264 260 258 0
-264 -260 -258 0
-265 260 0
-265 264 0
265 -260 -264 0
266 260 -264 0
266 -260 264 0
-266 260 264 0
-266 -260 -264 0
-267 268 0
-267 266 0
-267 -260 0
267 -268 260 -266 0
268 -260 266 0
-268 260 266 0
-269 266 0
268 -269 -260 0
-268 -269 260 0
268 269 260 -266 0
-268 269 -260 -266 0
-270 266 0
268 -270 260 0
-268 -270 -260 0
268 270 -260 -266 0
-268 270 260 -266 0
-271 268 0
-271 266 0
271 -268 -266 0
272 268 -266 0
272 -268 266 0
-272 268 266 0
-272 -268 -266 0
-273 28 0
-273 272 0
-273 268 -50 0
-273 -268 50 0
273 -28 268 50 -272 0
273 -28 -268 -50 -272 0
275 28 -268 0
275 -28 268 0
-275 28 268 0
-275 -28 -268 0
274 50 -272 0
274 -50 272 0
-274 50 272 0
-274 -50 -272 0
-276 275 0
-276 272 0
276 -275 -272 0
277 275 -272 0
277 -275 272 0
-277 275 272 0
-277 -275 -272 0
-278 279 0
-278 277 0
-278 -275 0
278 -279 275 -277 0
279 -275 277 0
-279 275 277 0
-280 277 0
279 -280 -275 0
-279 -280 275 0
279 280 275 -277 0
-279 280 -275 -277 0
-281 277 0
279 -281 275 0
-279 -281 -275 0
279 281 -275 -277 0
-279 281 275 -277 0
-282 279 0
-282 277 0
282 -279 -277 0
283 279 -277 0
283 -279 277 0
-283 279 277 0
-283 -279 -277 0
-284 279 0
-284 283 0
284 -279 -283 0
285 279 -283 0
285 -279 283 0
-285 279 283 0
-285 -279 -283 0
-286 287 0
-286 285 0
-286 -279 0
286 -287 279 -285 0
287 -279 285 0
-287 279 285 0
-288 285 0
287 -288 -279 0
-287 -288 279 0
287 288 279 -285 0
-287 288 -279 -285 0
-289 285 0
287 -289 279 0
-287 -289 -279 0
287 289 -279 -285 0
-287 289 279 -285 0
-290 287 0
-290 285 0
290 -287 -285 0
291 287 -285 0
291 -287 285 0
-291 287 285 0
-291 -287 -285 0
-292 252 0
-292 291 0
-292 287 -256 0
-292 -287 256 0
292 -252 287 256 -291 0
292 -252 -287 -256 -291 0
294 252 -287 0
294 -252 287 0
-294 252 287 0
-294 -252 -287 0
293 256 -291 0
293 -256 291 0
-293 256 291 0
-293 -256 -291 0
-295 294 0
-295 291 0
295 -294 -291 0
296 294 -291 0
296 -294 291 0
-296 294 291 0
-296 -294 -291 0
-297 298 0
-297 296 0
-297 -294 0
297 -298 294 -296 0
298 -294 296 0
-298 294 296 0
-299 296 0
298 -299 -294 0
-298 -299 294 0
298 299 294 -296 0
-298 299 -294 -296 0
-300 296 0
298 -300 294 0
-298 -300 -294 0
298 300 -294 -296 0
-298 300 294 -296 0
-301 298 0
-301 296 0
301 -298 -296 0
302 298 -296 0
302 -298 296 0
-302 298 296 0
-302 -298 -296 0
-303 23 0
-303 24 0
303 -23 -24 0
304 23 -24 0
304 -23 24 0
-304 23 24 0
-304 -23 -24 0
-305 306 0
-305 304 0
-305 -23 0
305 -306 23 -304 0
306 -23 304 0
-306 23 304 0
-307 304 0
306 -307 -23 0
-306 -307 23 0
306 307 23 -304 0
-306 307 -23 -304 0
-308 304 0
306 -308 23 0
-306 -308 -23 0
306 308 -23 -304 0
-306 308 23 -304 0
-309 306 0
-309 304 0
309 -306 -304 0
310 306 -304 0
310 -306 304 0
-310 306 304 0
-310 -306 -304 0
-311 306 0
-311 310 0
311 -306 -310 0
312 306 -310 0
312 -306 310 0
-312 306 310 0
-312 -306 -310 0
-313 314 0
-313 312 0
-313 -306 0
313 -314 306 -312 0
314 -306 312 0
-314 306 312 0
-315 312 0
314 -315 -306 0
-314 -315 306 0
314 315 306 -312 0
-314 315 -306 -312 0
-316 312 0
314 -316 306 0
-314 -316 -306 0
314 316 -306 -312 0
-314 316 306 -312 0
-317 314 0
-317 312 0
317 -314 -312 0
318 314 -312 0
318 -314 312 0
-318 314 312 0
-318 -314 -312 0
-319 63 0
-319 318 0
-319 314 -85 0
-319 -314 85 0
319 -63 314 85 -318 0
319 -63 -314 -85 -318 0
321 63 -314 0
321 -63 314 0
-321 63 314 0
-321 -63 -314 0
320 85 -318 0
320 -85 318 0
-320 85 318 0
-320 -85 -318 0
-322 321 0
-322 318 0
322 -321 -318 0
323 321 -318 0
323 -321 318 0
-323 321 318 0
-323 -321 -318 0
-324 325 0
-324 323 0
-324 -321 0
324 -325 321 -323 0
325 -321 323 0
-325 321 323 0
-326 323 0
325 -326 -321 0
-325 -326 321 0
325 326 321 -323 0
-325 326 -321 -323 0
-327 323 0
325 -327 321 0
-325 -327 -321 0
325 327 -321 -323 0
-325 327 321 -323 0
-328 325 0
-328 323 0
328 -325 -323 0
329 325 -323 0
329 -325 323 0
-329 325 323 0
-329 -325 -323 0
-330 325 0
-330 329 0
330 -325 -329 0
331 325 -329 0
331 -325 329 0
-331 325 329 0
-331 -325 -329 0
-332 333 0
-332 331 0
-332 -325 0
332 -333 325 -331 0
333 -325 331 0
-333 325 331 0
-334 331 0
333 -334 -325 0
-333 -334 325 0
333 334 325 -331 0
-333 334 -325 -331 0
-335 331 0
333 -335 325 0
-333 -335 -325 0
333 335 -325 -331 0
-333 335 325 -331 0
-336 333 0
-336 331 0
336 -333 -331 0
337 333 -331 0
337 -333 331 0
-337 333 331 0
-337 -333 -331 0
-338 125 0
-338 337 0
-338 333 -129 0
-338 -333 129 0
338 -125 333 129 -337 0
338 -125 -333 -129 -337 0
340 125 -333 0
340 -125 333 0
-340 125 333 0
-340 -125 -333 0
339 129 -337 0
339 -129 337 0
-339 129 337 0
-339 -129 -337 0
-341 340 0
-341 337 0
341 -340 -337 0
342 340 -337 0
342 -340 337 0
-342 340 337 0
-342 -340 -337 0
-343 344 0
-343 342 0
-343 -340 0
343 -344 340 -342 0
344 -340 342 0
-344 340 342 0
-345 342 0
344 -345 -340 0
-344 -345 340 0
344 345 340 -342 0
-344 345 -340 -342 0
-346 342 0
344 -346 340 0
-344 -346 -340 0
344 346 -340 -342 0
-344 346 340 -342 0
-347 344 0
-347 342 0
347 -344 -342 0
348 344 -342 0
348 -344 342 0
-348 344 342 0
-348 -344 -342 0
-28 0
-55 0
-247 0
-63 0
-320 0
-90 0
-201 0
-98 0
-155 0
-125 0
-339 0
-133 0
-220 0
-179 0
-183 0
-225 0
-229 0
-252 0
-293 0
-298 0
-302 0
-344 0
-348 0
